
******************************************************************************
This program contains Ipopt, a library for large-scale nonlinear optimization.
 Ipopt is released as open source code under the Eclipse Public License (EPL).
         For more information visit https://github.com/coin-or/Ipopt
******************************************************************************

This is Ipopt version 3.14.19, running with linear solver MUMPS 5.8.1.

Number of nonzeros in equality constraint Jacobian...:     2204
Number of nonzeros in inequality constraint Jacobian.:        0
Number of nonzeros in Lagrangian Hessian.............:      525

Total number of variables............................:      647
                     variables with only lower bounds:        0
                variables with lower and upper bounds:      232
                     variables with only upper bounds:        0
Total number of equality constraints.................:      639
Total number of inequality constraints...............:        0
        inequality constraints with only lower bounds:        0
   inequality constraints with lower and upper bounds:        0
        inequality constraints with only upper bounds:        0

iter    objective    inf_pr   inf_du lg(mu)  ||d||  lg(rg) alpha_du alpha_pr  ls
   0  4.9328602e+00 9.20e+01 2.12e-04  -1.0 0.00e+00    -  0.00e+00 0.00e+00   0
   1  4.9310425e+00 1.13e+01 6.42e+01  -1.0 8.92e+01    -  1.51e-02 1.00e+00h  1
   2  4.9343232e+00 2.04e-01 2.58e-02  -1.0 4.83e-01  -4.0 9.90e-01 1.00e+00h  1
   3  4.9430915e+00 1.39e-01 3.00e-01  -1.0 4.83e+00    -  8.38e-01 1.00e+00h  1
   4  4.9484233e+00 2.08e-01 2.63e-03  -1.0 3.41e+00    -  1.00e+00 1.00e+00h  1
   5  4.9484602e+00 1.68e-01 1.60e-02  -1.7 4.61e+01    -  1.00e+00 1.00e+00h  1
   6  4.9468800e+00 2.82e-04 1.28e-04  -2.5 5.46e-01  -4.5 1.00e+00 1.00e+00h  1
   7  4.9365006e+00 7.79e-01 6.41e-02  -3.8 1.19e+02    -  4.50e-01 1.00e+00h  1
   8  4.9312010e+00 5.62e-03 2.94e-03  -3.8 3.76e+00  -5.0 9.77e-01 1.00e+00h  1
   9  4.9250174e+00 4.47e-01 5.99e-03  -3.8 1.15e+02    -  1.00e+00 1.00e+00h  1
iter    objective    inf_pr   inf_du lg(mu)  ||d||  lg(rg) alpha_du alpha_pr  ls
  10  4.9254010e+00 2.78e-01 2.30e-03  -3.8 3.66e+02    -  1.00e+00 1.00e+00H  1
  11  4.9253847e+00 3.33e-01 3.05e-03  -3.8 6.07e+02    -  1.00e+00 1.00e+00H  1
  12  4.9253745e+00 4.50e-01 2.50e-03  -3.8 1.30e+03    -  1.00e+00 1.00e+00H  1
  13  4.9253697e+00 2.46e-01 2.42e-03  -3.8 2.43e+03    -  1.00e+00 1.00e+00H  1
  14  4.9253675e+00 2.71e-01 2.57e-03  -3.8 4.86e+03    -  1.00e+00 1.00e+00H  1
  15  4.9253663e+00 3.07e-01 2.55e-03  -3.8 9.88e+03    -  1.00e+00 1.00e+00H  1
  16  4.9253655e+00 2.69e+00 7.84e-04  -3.8 1.97e+04    -  1.00e+00 1.00e+00h  1
  17  4.9253654e+00 4.75e-01 1.08e-02  -3.8 6.20e+04    -  1.00e+00 1.00e+00h  1
  18  4.9253655e+00 3.64e-12 1.62e-10  -3.8 4.36e-05  -5.4 1.00e+00 1.00e+00h  1
  19  4.9236043e+00 9.84e-01 2.36e-03  -5.7 5.72e+04    -  9.11e-01 1.00e+00f  1
iter    objective    inf_pr   inf_du lg(mu)  ||d||  lg(rg) alpha_du alpha_pr  ls
  20  4.9234312e+00 2.05e+00 1.73e-03  -5.7 1.44e+05    -  1.00e+00 1.00e+00h  1
  21  4.9234304e+00 9.03e-01 3.89e-03  -5.7 3.11e+05    -  1.00e+00 1.00e+00h  1
  22  4.9234304e+00 5.27e-01 2.87e-03  -5.7 7.33e+05    -  1.00e+00 1.00e+00H  1
  23  4.9234304e+00 4.53e-01 2.31e-03  -5.7 1.28e+06    -  1.00e+00 1.00e+00H  1
  24  4.9234304e+00 2.65e-01 2.36e-03  -5.7 2.40e+06    -  1.00e+00 1.00e+00H  1
  25  4.9234304e+00 7.37e-02 2.26e-03  -5.7 4.85e+06    -  1.00e+00 1.00e+00H  1
  26  4.9234304e+00 2.14e-02 2.53e-03  -5.7 9.73e+06    -  1.00e+00 1.00e+00H  1
  27  4.9234304e+00 7.42e-03 2.40e-03  -5.7 1.99e+07    -  1.00e+00 1.00e+00H  1
  28  4.9234304e+00 6.04e-03 2.44e-03  -5.7 3.94e+07    -  1.00e+00 1.00e+00H  1
  29  4.9234304e+00 6.04e-03 2.44e-03  -5.7 7.91e+07    -  1.00e+00 1.95e-03h 10
iter    objective    inf_pr   inf_du lg(mu)  ||d||  lg(rg) alpha_du alpha_pr  ls
  30  4.9234304e+00 6.04e-03 2.43e-03  -5.7 7.92e+07    -  1.00e+00 1.95e-03h 10
  31  4.9234304e+00 6.04e-03 2.43e-03  -5.7 7.92e+07    -  1.00e+00 1.95e-03h 10
  32  4.9234304e+00 6.04e-03 2.42e-03  -5.7 7.92e+07    -  1.00e+00 1.95e-03h 10
  33  4.9234304e+00 6.03e-03 2.42e-03  -5.7 7.93e+07    -  1.00e+00 1.95e-03h 10
  34  4.9234304e+00 6.03e-03 2.41e-03  -5.7 7.93e+07    -  1.00e+00 1.95e-03h 10
  35  4.9234304e+00 6.03e-03 2.41e-03  -5.7 7.93e+07    -  1.00e+00 1.95e-03h 10
  36  4.9234304e+00 6.03e-03 2.41e-03  -5.7 7.94e+07    -  1.00e+00 1.95e-03h 10
  37  4.9234304e+00 6.03e-03 2.40e-03  -5.7 7.94e+07    -  1.00e+00 1.95e-03h 10
  38  4.9234304e+00 6.03e-03 2.40e-03  -5.7 7.95e+07    -  1.00e+00 1.95e-03h 10
  39  4.9234304e+00 2.76e+00 9.38e-04  -5.7 7.95e+07    -  1.00e+00 1.00e+00w  1
iter    objective    inf_pr   inf_du lg(mu)  ||d||  lg(rg) alpha_du alpha_pr  ls
  40  4.9234304e+00 1.18e-01 7.93e-03  -5.7 2.22e+08    -  1.00e+00 1.00e+00w  1
  41  4.9234304e+00 1.42e-14 5.86e-16  -5.7 4.74e-10  -5.9 1.00e+00 1.00e+00h  1
  42  4.9234046e+00 1.25e+00 3.88e-04  -8.6 2.04e+08    -  1.00e+00 1.00e+00f  1
  43  4.9234046e+00 4.24e-01 8.55e-04  -8.6 5.11e+08    -  1.00e+00 1.00e+00H  1
  44  4.9234046e+00 4.20e-01 4.27e-04  -8.6 1.35e+09    -  1.00e+00 1.00e+00H  1
  45  4.9234046e+00 2.07e-01 5.06e-04  -8.6 2.13e+09    -  1.00e+00 1.00e+00H  1
  46  4.9234046e+00 8.15e-02 4.83e-04  -8.6 4.48e+09    -  1.00e+00 1.00e+00H  1
  47  4.9234046e+00 2.23e-02 5.35e-04  -8.6 8.95e+09    -  1.00e+00 1.00e+00H  1
  48  4.9234046e+00 7.44e-03 5.08e-04  -8.6 1.83e+10    -  1.00e+00 1.00e+00H  1
  49  4.9234046e+00 6.04e-03 5.17e-04  -8.6 3.61e+10    -  1.00e+00 1.00e+00H  1
iter    objective    inf_pr   inf_du lg(mu)  ||d||  lg(rg) alpha_du alpha_pr  ls
  50  4.9234046e+00 6.04e-03 5.16e-04  -8.6 7.26e+10    -  1.00e+00 1.95e-03h 10
  51  4.9234046e+00 6.04e-03 5.15e-04  -8.6 7.27e+10    -  1.00e+00 1.95e-03h 10
  52  4.9234046e+00 6.04e-03 5.14e-04  -8.6 7.27e+10    -  1.00e+00 1.95e-03h 10
  53  4.9234046e+00 6.03e-03 5.13e-04  -8.6 7.27e+10    -  1.00e+00 1.95e-03h 10
  54  4.9234046e+00 6.03e-03 5.12e-04  -8.6 7.28e+10    -  1.00e+00 1.95e-03h 10
  55  4.9234046e+00 6.03e-03 5.11e-04  -8.6 7.28e+10    -  1.00e+00 1.95e-03h 10
  56  4.9234046e+00 6.03e-03 5.10e-04  -8.6 7.28e+10    -  1.00e+00 1.95e-03h 10
  57  4.9234046e+00 6.03e-03 5.09e-04  -8.6 7.29e+10    -  1.00e+00 1.95e-03h 10
  58  4.9234046e+00 6.03e-03 5.08e-04  -8.6 7.29e+10    -  1.00e+00 1.95e-03h 10
  59  4.9234046e+00 6.03e-03 5.07e-04  -8.6 7.29e+10    -  1.00e+00 1.95e-03h 10
iter    objective    inf_pr   inf_du lg(mu)  ||d||  lg(rg) alpha_du alpha_pr  ls
  60  4.9234046e+00 2.76e+00 1.99e-04  -8.6 7.30e+10    -  1.00e+00 1.00e+00w  1
  61  4.9234046e+00 1.19e-01 1.68e-03  -8.6 2.04e+11    -  1.00e+00 1.00e+00w  1
  62  4.9234046e+00 2.45e-14 4.44e-16  -8.6 4.91e-13  -6.4 1.00e+00 1.00e+00h  1

Number of Iterations....: 62

                                   (scaled)                 (unscaled)
Objective...............:   4.9234045975095579e+00    4.9234045975095579e+00
Dual infeasibility......:   4.4408920985006262e-16    4.4408920985006262e-16
Constraint violation....:   1.4210854715202004e-14    2.4507261905983244e-14
Variable bound violation:   0.0000000000000000e+00    0.0000000000000000e+00
Complementarity.........:   2.5059035596929716e-09    2.5059035596929716e-09
Overall NLP error.......:   2.5059035596929716e-09    2.5059035596929716e-09


Number of objective function evaluations             = 368
Number of objective gradient evaluations             = 63
Number of equality constraint evaluations            = 368
Number of inequality constraint evaluations          = 0
Number of equality constraint Jacobian evaluations   = 63
Number of inequality constraint Jacobian evaluations = 0
Number of Lagrangian Hessian evaluations             = 62
Total seconds in IPOPT                               = 0.188

EXIT: Optimal Solution Found.
